p cnf 7 26
6 5 -6 6 0
2 -3 -4 0
6 2 -6 3 0
3 -2 3 0
1 -2 -5 -4 3 0
-1 2 -5 6 1 3 0
7 6 -4 -1 7 0
5 -6 0
6 0
-2 -2 -4 -7 2 0
-5 -6 -2 5 0
5 -5 -1 -4 2 -3 0
-2 -2 -5 6 4 0
6 -2 1 3 7 -1 0
-6 6 1 -2 0
3 6 4 2 -5 -4 0
6 0
-1 -4 4 4 -3 -5 0
-1 -2 6 4 1 0
-6 5 4 2 2 0
2 -5 -1 -4 2 -5 0
-1 3 0
3 -4 -7 -7 -2 -2 0
-4 -7 7 -5 -5 0
4 -6 -6 2 -1 3 0
-4 0